
  32    4
  10   10   10   10

   0   0   0   0   0   2 2 5 
   4  10  10  10  10   1 3 
   2  10  10  10  10   1 4 
   4  10  10  10  10   1 6 
   3  10  10  10  10   1 6 
   5  10  10  10  10   2 9 7 
  10  10  10  10  10   2 10 8 
  10  10  10  10  10   1 11 
   3  10  10  10  10   1 10 
   3  10  10  10  10   1 12 
   6  10  10  10  10   1 12 
   6  10  10  10  10   1 13 
   7  10  10  10  10   1 14 
   1  10  10  10  10   2 16 15 
   8  10  10  10  10   1 17 
   9  10  10  10  10   1 17 
   1  10  10  10  10   2 19 18 
   7  10  10  10  10   1 20 
   3  10  10  10  10   1 20 
   9  10  10  10  10   1 21 
   4  10  10  10  10   1 22 
   8  10  10  10  10   1 23 
   6  10  10  10  10   1 24 
   2  10  10  10  10   1 25 
   2  10  10  10  10   2 27 26 
   5  10  10  10  10   1 28 
   6  10  10  10  10   1 28 
   9  10  10  10  10   1 29 
   8  10  10  10  10   1 30 
  10  10  10  10  10   1 31 
   6  10  10  10  10   1 32
   0   0   0   0   0   0 
